1	2	1	1	3	5	0	0	0	0	0	0
800	1	0	0	0	0	0	0	0	0	0	0
100	1	0	60.63	0.49	1	0	0	0	0	0	0
100	1	0	60.63	0.49	1	0	0	0	0	0	0
50	150	0	0	0	0	9999	0	0	99999	0	0
50	75	0	0	0	0	9999	0	0	99999	0	0
50	75	0	0	0	0	9999	0	0	0	0	0
48	60	0	0	0	0	9999	0	0	0	0	0
15	42	0	0	0	0	9999	0	0	0	0	0
57	68	15	13	2	116	296	10	0	0	0	0
41	49	10	8	2	152	162	10	0	0	0	0
15	30	26	13	13	116	315	10	0	0	0	0
28	18	26	17	9	282	292	10	0	0	0	0
20	26	9	7	2	116	318	10	0	0	0	0

